(declare-fun a$ () Real)
(declare-fun y$ () Real)
(declare-fun divide$ (Real Real) Real)
(assert (not (<= (- a$) (divide$ 1.0 2.0))))
(assert (<= a$ 0.0))
(assert (<= 0.0 y$))
(assert (<= y$ 1.0))
(assert (< (divide$ (- 1.0) 2.0) a$))
(assert (forall ((?v0 Real) (?v1 Real)) (= (- (divide$ ?v0 ?v1)) (divide$ (- ?v0) ?v1))))
(check-sat)
